# Solution for model GasLib-40
# Objective value = 5.9451632195682009e+01
loadshed[innode_1] 0
loadshed[innode_2] 0
loadshed[innode_3] 0
loadshed[innode_4] 0
loadshed[innode_5] 0
loadshed[innode_6] 0
loadshed[innode_7] 0
loadshed[innode_8] 0
loadshed[source_1] -2.7596414851202011e-02
loadshed[source_2] 1.2585406493808449e-01
loadshed[source_3] 2.7780362978031681e-01
loadshed[sink_1] 7.2542537541276053e-01
loadshed[sink_2] 0
loadshed[sink_3] 0
loadshed[sink_4] 0
loadshed[sink_5] 0
loadshed[sink_6] 0
loadshed[sink_7] 0
loadshed[sink_8] 0
loadshed[sink_9] 0
loadshed[sink_10] 0
loadshed[sink_11] 0
loadshed[sink_12] 1
loadshed[sink_13] 0
loadshed[sink_14] 0
loadshed[sink_15] 0
loadshed[sink_16] 0
loadshed[sink_17] 0
loadshed[sink_18] 0
loadshed[sink_19] 0
loadshed[sink_20] 0
loadshed[sink_21] 1
loadshed[sink_22] 0
loadshed[sink_23] 0
loadshed[sink_24] 9.0983366330410065e-01
loadshed[sink_25] 0
loadshed[sink_26] 0
loadshed[sink_27] 0
loadshed[sink_28] 0
loadshed[sink_29] 0
flow[source_1,sink_3] 1.6245300266727509e+02
flow[innode_1,sink_16] 1.6354166666666970e+01
flow[innode_6,sink_13] 3.0694188853391324e-01
flow[sink_13,sink_14] -1.6047224778132755e+01
flow[sink_14,sink_10] -32.4013914447994
flow[sink_25,sink_26] 1.8586086780432345e+02
flow[sink_26,sink_9] 1.6354166666669244e+01
flow[sink_9,sink_18] 0
flow[sink_26,sink_4] 1.5315253447098746e+02
flow[sink_4,sink_20] 3.2708333333335005e+01
flow[sink_18,sink_6] -1.6354166666667879e+01
flow[sink_25,innode_8] -1.2974466933393870e+02
flow[sink_6,sink_7] -5.3552939172938352e+01
flow[sink_6,sink_22] 2.0844605839603815e+01
flow[sink_7,sink_24] 1.4745952980475225e+00
flow[sink_22,sink_1] 4.4904391729371458e+00
flow[sink_24,sink_21] 0
flow[sink_21,sink_12] 0
flow[sink_7,sink_5] -7.1381701137652541e+01
flow[sink_5,sink_17] -8.7735867804319213e+01
flow[sink_17,sink_4] -1.0409003447098587e+02
flow[sink_17,sink_8] 0
flow[sink_3,sink_23] 16.3541666666697
flow[sink_8,sink_20] -1.6354166666668334e+01
flow[sink_25,sink_20] 0
flow[sink_25,sink_15] -7.2777307025585628e+01
flow[sink_15,sink_29] -51.1819205546667
flow[sink_29,sink_28] 1.6354166666667879e+01
flow[sink_29,sink_2] 5.4303719804252182e+01
flow[sink_2,sink_15] 3.7949553137585553e+01
flow[sink_29,innode_7] -1.3819397369225351e+02
flow[innode_4,sink_19] 4.4049450168600288e+01
flow[sink_19,innode_3] 3.9754035166164385e+01
flow[innode_4,innode_5] 7.0122774609532257e+01
flow[sink_27,innode_5] -7.0122774609532257e+01
flow[sink_27,sink_19] 5.3768607942865629e+01
flow[sink_10,sink_11] 3.2708333333333641e+01
flow[sink_10,innode_2] -41.7098562786353
flow[sink_10,innode_3] -3.9754035166164385e+01
flow[innode_6,sink_25] -3.0694188853391324e-01
flow[sink_11,innode_1] 1.6354166666666970e+01
flow[sink_19,innode_2] 41.7098562786353
flow[source_3,innode_4] 1.1417222477813254e+02
flow[source_2,innode_7] 1.3819397369225351e+02
flow[sink_3,innode_8] 1.2974466933393870e+02
pressure[innode_1] 7.6872455055753321e+01
pressure[innode_2] 7.9228694535031266e+01
pressure[innode_3] 7.9140663725811933e+01
pressure[innode_4] 81.01325
pressure[innode_5] 80.9650158580382
pressure[innode_6] 7.5464590287976989e+01
pressure[innode_7] 81.01325
pressure[innode_8] 8.0470231671379722e+01
pressure[source_1] 81.01325
pressure[source_2] 81.01325
pressure[source_3] 81.01325
pressure[sink_1] 1.0132500000000002e+00
pressure[sink_2] 7.5941528069895526e+01
pressure[sink_3] 8.0470231671379722e+01
pressure[sink_4] 4.2902308909457659e+01
pressure[sink_5] 3.2388643039901211e+01
pressure[sink_6] 1.9663975385213623e+00
pressure[sink_7] 2.7015517424789466e+00
pressure[sink_8] 3.9363018067086330e+01
pressure[sink_9] 6.1395679434610727e+01
pressure[sink_10] 7.7024156363356866e+01
pressure[sink_11] 7.6872455055753321e+01
pressure[sink_12] 1.01325
pressure[sink_13] 7.5462898168640251e+01
pressure[sink_14] 7.5491616044302020e+01
pressure[sink_15] 75.8176311428481
pressure[sink_16] 7.5850805220935641e+01
pressure[sink_17] 3.8924331018255657e+01
pressure[sink_18] 1.5296925957681227e+00
pressure[sink_19] 7.9228694535031266e+01
pressure[sink_20] 4.0502673490674617e+01
pressure[sink_21] 1.01325
pressure[sink_22] 1.3053340129096114e+00
pressure[sink_23] 8.0305513659719935e+01
pressure[sink_24] 1.01325
pressure[sink_25] 7.5464590287976989e+01
pressure[sink_26] 6.2374518518553145e+01
pressure[sink_27] 8.0383126401734359e+01
pressure[sink_28] 77.021820304385
pressure[sink_29] 7.7317102578002178e+01
interdiction[source_1,sink_3] 0
interdiction[innode_1,sink_16] 0
interdiction[innode_6,sink_13] 0
interdiction[sink_13,sink_14] 0
interdiction[sink_14,sink_10] 0
interdiction[sink_25,sink_26] 0
interdiction[sink_26,sink_9] 0
interdiction[sink_9,sink_18] 1
interdiction[sink_26,sink_4] 0
interdiction[sink_4,sink_20] 0
interdiction[sink_18,sink_6] 0
interdiction[sink_25,innode_8] 0
interdiction[sink_6,sink_7] 0
interdiction[sink_6,sink_22] 0
interdiction[sink_7,sink_24] 0
interdiction[sink_22,sink_1] 0
interdiction[sink_24,sink_21] 0
interdiction[sink_21,sink_12] 0
interdiction[sink_7,sink_5] 0
interdiction[sink_5,sink_17] 0
interdiction[sink_17,sink_4] 0
interdiction[sink_17,sink_8] 1
interdiction[sink_3,sink_23] 0
interdiction[sink_8,sink_20] 0
interdiction[sink_25,sink_20] 1
interdiction[sink_25,sink_15] 0
interdiction[sink_15,sink_29] 0
interdiction[sink_29,sink_28] 0
interdiction[sink_29,sink_2] 0
interdiction[sink_2,sink_15] 0
interdiction[sink_29,innode_7] 0
interdiction[innode_4,sink_19] 0
interdiction[sink_19,innode_3] 0
interdiction[innode_4,innode_5] 0
interdiction[sink_27,innode_5] 0
interdiction[sink_27,sink_19] 0
interdiction[sink_10,sink_11] 0
interdiction[sink_10,innode_2] 0
interdiction[sink_10,innode_3] 0
interdiction[innode_6,sink_25] 0
interdiction[sink_11,innode_1] 0
interdiction[sink_19,innode_2] 0
interdiction[source_3,innode_4] 0
interdiction[source_2,innode_7] 0
interdiction[sink_3,innode_8] 0
WCcheckFlow[source_1,sink_3] 39
WCcheckFlow[innode_1,sink_16] 1
WCcheckFlow[innode_6,sink_13] 13
WCcheckFlow[sink_13,sink_14] 12
WCcheckFlow[sink_14,sink_10] 11
WCcheckFlow[sink_25,sink_26] 15
WCcheckFlow[sink_26,sink_9] 1
WCcheckFlow[sink_9,sink_18] 0
WCcheckFlow[sink_26,sink_4] 13
WCcheckFlow[sink_4,sink_20] 2
WCcheckFlow[sink_18,sink_6] -1
WCcheckFlow[sink_25,innode_8] -36
WCcheckFlow[sink_6,sink_7] -4
WCcheckFlow[sink_6,sink_22] 2
WCcheckFlow[sink_7,sink_24] 3
WCcheckFlow[sink_22,sink_1] 1
WCcheckFlow[sink_24,sink_21] 2
WCcheckFlow[sink_21,sink_12] 1
WCcheckFlow[sink_7,sink_5] -8
WCcheckFlow[sink_5,sink_17] -9
WCcheckFlow[sink_17,sink_4] -10
WCcheckFlow[sink_17,sink_8] 0
WCcheckFlow[sink_3,sink_23] 1
WCcheckFlow[sink_8,sink_20] -1
WCcheckFlow[sink_25,sink_20] 0
WCcheckFlow[sink_25,sink_15] 6
WCcheckFlow[sink_15,sink_29] 5
WCcheckFlow[sink_29,sink_28] 1
WCcheckFlow[sink_29,sink_2] 1
WCcheckFlow[sink_2,sink_15] 0
WCcheckFlow[sink_29,innode_7] 2
WCcheckFlow[innode_4,sink_19] -4
WCcheckFlow[sink_19,innode_3] -5
WCcheckFlow[innode_4,innode_5] 2
WCcheckFlow[sink_27,innode_5] -1
WCcheckFlow[sink_27,sink_19] 0
WCcheckFlow[sink_10,sink_11] 3
WCcheckFlow[sink_10,innode_2] 1
WCcheckFlow[sink_10,innode_3] 6
WCcheckFlow[innode_6,sink_25] -14
WCcheckFlow[sink_11,innode_1] 2
WCcheckFlow[sink_19,innode_2] 0
WCcheckFlow[source_3,innode_4] -1
WCcheckFlow[source_2,innode_7] -1
WCcheckFlow[sink_3,innode_8] 37
